c status 35 1469274501370
c status 31 1469274501371
c status 30 1469274501404
c status 29 1469274505708
s td 96 29 126
b 1 48 2 49 47
b 2 2 39 49 47 1
b 3 39 50 49 47 20 1
b 4 95 50 93 96
b 5 50 61 49 93 47 96 20 1
b 6 121 122 120 82
b 7 122 61 120 82 123
b 8 61 72 49 93 120 82 123 47 96 20 1
b 9 72 62 49 93 83 120 82 123 47 96 20 1
b 10 62 60 49 63 93 83 120 82 123 47 96 20 1
b 11 60 59 49 63 93 83 120 82 123 10 47 96 20 1
b 12 59 49 63 93 83 120 82 123 58 10 45 47 96 20 1
b 13 73 74 49 71
b 14 74 26 49 75 71
b 15 26 27 49 75 71 24
b 16 27 28 49 83 75 71 24
b 17 28 29 49 83 75 71 24 5
b 18 29 90 49 83 30 75 71 24 5
b 19 90 91 49 83 30 75 89 71 24 5
b 20 101 102 63 100
b 21 102 103 63 100 17
b 22 103 91 63 100 104 17
b 23 91 92 49 63 83 100 104 30 17 75 89 71 24 5
b 24 92 49 63 93 83 100 104 30 17 69 75 89 71 24 5
b 25 51 52 49 113
b 26 52 64 49 53 113
b 27 64 49 63 53 113 65
b 28 94 40 83 105
b 29 40 83 105 38 41
b 30 49 63 93 83 100 104 53 120 82 30 17 69 113 123 75 89 58 10 45 47 65 71 24 96 5 20 1
b 31 93 83 100 104 53 120 82 30 17 69 113 123 75 89 58 10 25 45 47 65 71 24 96 5 20 1
b 32 83 100 105 104 53 120 82 30 17 69 38 41 113 123 75 89 58 10 25 45 47 65 71 24 96 5 20 1
b 33 42 18 43 41
b 34 18 19 43 17 41
b 35 19 7 43 17 41 20
b 36 70 9 69 71
b 37 9 8 69 10 71
b 38 106 107 104 47
b 39 107 108 105 104 47
b 40 108 109 78 105 104 47
b 41 109 8 110 78 105 104 47
b 42 8 7 110 78 105 104 69 10 47 71
b 43 7 6 43 110 78 105 104 17 69 41 10 47 71 20
b 44 6 43 110 78 54 105 104 17 69 41 10 47 71 5 20
b 45 44 32 43 45
b 46 32 33 43 25 45
b 47 33 34 43 25 45 24
b 48 34 35 43 110 25 45 24
b 49 35 36 43 110 100 25 45 24
b 50 36 37 43 110 100 25 45 24 1
b 51 37 56 43 110 100 38 25 45 24 1
b 52 77 76 78 96
b 53 76 57 78 75 96
b 54 57 56 78 75 58 96
b 55 56 55 43 110 78 100 38 75 58 25 45 24 96 1
b 56 55 43 110 78 54 100 120 38 75 58 25 45 24 96 1
b 57 79 80 78 65
b 58 80 81 78 30 65
b 59 81 43 78 82 30 65
b 60 111 112 110 123
b 61 112 110 113 123 89
b 62 43 110 78 54 100 105 104 120 82 30 17 69 38 41 75 58 10 25 45 47 65 71 24 96 5 20 1
b 63 110 78 54 100 105 104 120 82 30 17 69 38 41 113 123 75 89 58 10 25 45 47 65 71 24 96 5 20 1
b 64 54 100 105 104 53 120 82 30 17 69 38 41 113 123 75 89 58 10 25 45 47 65 71 24 96 5 20 1
b 65 119 118 104 120
b 66 118 23 117 104 120
b 67 23 22 117 104 120 24
b 68 22 66 117 104 120 24 21
b 69 66 67 117 104 120 65 24 21
b 70 68 67 69 38
b 71 67 125 117 104 120 69 38 65 24 21
b 72 125 126 117 104 120 69 38 124 65 24 21
b 73 46 126 45 47
b 74 126 4 117 104 120 69 38 124 45 47 65 24 21
b 75 4 98 117 104 120 69 38 124 45 47 65 24 5 21
b 76 98 97 117 99 104 120 69 38 124 45 47 65 24 5 21
b 77 97 115 117 99 104 120 69 38 124 45 47 65 24 96 5 21
b 78 115 114 117 99 104 120 69 38 124 45 47 65 24 96 5 21
b 79 114 117 99 104 120 69 38 41 113 124 45 47 65 24 96 5 21
b 80 88 87 89 58
b 81 87 86 89 58 21
b 82 16 15 17 75
b 83 15 13 17 124 75
b 84 31 12 30 1
b 85 11 12 117 10
b 86 12 13 117 30 10 1
b 87 13 3 117 30 17 124 75 10 1
b 88 14 3 53 25
b 89 3 116 117 53 30 17 124 75 10 25 1
b 90 116 86 117 105 53 30 17 124 75 10 25 1
b 91 86 85 117 105 53 30 17 124 75 89 58 10 25 21 1
b 92 85 84 117 99 105 53 30 17 124 75 89 58 10 25 21 1
b 93 84 117 99 105 53 82 30 17 124 75 89 58 10 25 71 21 1
b 94 117 99 105 104 53 120 82 30 17 69 38 41 113 124 75 89 58 10 25 45 47 65 71 24 96 5 21 1
b 95 100 99 105 104 53 120 82 30 17 69 38 41 113 123 75 89 58 10 25 45 47 65 71 24 96 5 20 1
b 96 99 105 104 53 120 82 30 17 69 38 41 113 124 123 75 89 58 10 25 45 47 65 71 24 96 5 20 21 1
1 2
2 3
3 5
5 8
8 9
9 10
10 11
11 12
12 30
30 31
31 32
32 64
32 95
64 63
95 96
96 94
63 62
94 93
94 79
93 92
79 78
78 77
62 44
92 91
62 56
77 76
30 24
44 43
56 55
76 75
24 23
75 74
91 90
74 72
90 89
43 42
55 51
23 19
72 71
51 50
19 18
89 87
50 49
18 17
71 69
42 41
49 48
17 16
69 68
62 59
43 35
55 54
23 22
30 27
87 86
41 40
48 47
16 15
68 67
91 81
59 58
42 37
87 83
35 34
54 53
22 21
27 26
32 29
40 39
47 46
15 14
67 66
8 7
63 61
5 4
74 73
81 80
46 45
58 57
39 38
83 82
89 88
71 70
86 84
86 85
37 36
34 33
53 52
21 20
26 25
29 28
14 13
66 65
7 6
61 60
